\ This file has been generated by DOcplex
\ ENCODING=ISO-8859-1
\Problem name: AMC CVRP Docplex Model

Minimize
 obj: 33 x_0 + 16 x_1 - 4 x_2 + 22 x_3 - 8 x_4 + 34 x_5 + 13 x_6 + 29 x_7
      + 14 x_9 - 20 x_10 + 37 x_11
Subject To
 allVarsCons: x_0 + x_1 + x_2 + x_3 + x_4 + x_5 + x_6 + x_7 + x_8 + x_9 + x_10
              + x_11 = 8
 randomCons: 35 x_5 + 23 x_6 - 19 x_8 = 58
 randomCons#2: x_2 - 2 x_4 + 14 x_7 + 3 x_8 + 44 x_10 = 56
 randomCons#3: 39 x_3 + 42 x_7 + 5 x_9 - 18 x_10 = 29
 randomCons#4: - 21 x_2 - 30 x_3 + 43 x_6 + 5 x_8 - 22 x_11 = 21

Bounds
 0 <= x_0 <= 1
 0 <= x_1 <= 1
 0 <= x_2 <= 1
 0 <= x_3 <= 1
 0 <= x_4 <= 1
 0 <= x_5 <= 1
 0 <= x_6 <= 1
 0 <= x_7 <= 1
 0 <= x_8 <= 1
 0 <= x_9 <= 1
 0 <= x_10 <= 1
 0 <= x_11 <= 1

Binaries
 x_0 x_1 x_2 x_3 x_4 x_5 x_6 x_7 x_8 x_9 x_10 x_11
End
